199 90 79 134 58 175 158 164 150 184 11 155 133 142 140 81 194 173 28 193 72 85 148 145 171 98 66 123 166 14 191 182 119 65 97 178 2 92 102 124 154 42 23 10 101 177 88 103 170 29 161 46 31 146 35 100 169 73 108 33 106 91 94 26 151 185 32 162 74 63 22 76 195 130 179 12 149 52 20 126 86 39 1 118 114 47 168 7 83 137 54 87 64 181 143 3 89 135 138 5 104 67 59 127 78 93 34 71 24 131 157 192 112 19 53 107 44 121 80 37 75 111 167 152 68 165 122 172 13 77 61 9 30 0 36 153 17 27 160 96 8 110 141 180 84 48 190 69 62 156 41 49 116 70 188 21 6 187 45 174 186 125 163 4 82 18 105 176 129 117 57 95 197 55 43 99 60 15 38 196 136 132 113 147 51 25 109 144 198 50 189 40 115 16 120 159 56 139 183 128 

